(set-logic ALL)
(set-option :produce-models true)
(declare-sort BoundSet 0)
(declare-sort UnboundSet 0)
(declare-fun IsPitching (BoundSet) Bool)
(declare-fun IsTheBall (BoundSet) Bool)
(declare-fun IsThrows (BoundSet) Bool)
(assert (not (=> (and (exists ((a BoundSet)) (exists ((b BoundSet)) (and (IsPitching a) (IsTheBall b)))) (and (forall ((c BoundSet)) (=> (IsPitching c) (IsThrows c))) (forall ((d BoundSet)) (=> (IsThrows d) (IsPitching d))))) (exists ((a BoundSet)) (exists ((b BoundSet)) (and (IsThrows a) (IsTheBall b)))))))
(check-sat)
(get-model)